
Gurobi 9.1.1 (mac64, gurobi_cl) logging started Sat Feb 27 19:33:16 2021

Academic license - for non-commercial use only - expires 2021-04-06
Using license file /Users/agnese/gurobi.lic
Set parameter LogFile to value gurobi.log

Gurobi Optimizer version 9.1.1 build v9.1.1rc0 (mac64)
Copyright (c) 2020, Gurobi Optimization, LLC

Read LP format model from file /Users/agnese/Documents/KTH-Work/GitHub_repositories/KTH-dESA/GLUCOSE/results/FINAL_2060/Baseline/cplex_REMaxCap+HPLL/gurobi/GLUCOSE_FinalBaseline+REMaxCap+HPLL.lp
Reading time = 0.45 seconds
cost: 55953 rows, 46410 columns, 511722 nonzeros
Thread count: 2 physical cores, 4 logical processors, using up to 4 threads
Optimize a model with 55953 rows, 46410 columns and 511722 nonzeros
Model fingerprint: 0xbbc51f0c
Coefficient statistics:
  Matrix range     [2e-08, 6e+03]
  Objective range  [7e-08, 4e+11]
  Bounds range     [0e+00, 0e+00]
  RHS range        [1e-04, 1e+06]
Warning: Model contains large objective coefficients
         Consider reformulating model or setting NumericFocus parameter
         to avoid numerical issues.

Concurrent LP optimizer: dual simplex and barrier
Showing barrier log only...

Presolve removed 30245 rows and 28132 columns
Presolve time: 0.20s
Presolved: 25708 rows, 18479 columns, 350759 nonzeros

Ordering time: 0.65s

Barrier statistics:
 AA' NZ     : 1.296e+06
 Factor NZ  : 7.232e+06 (roughly 80 MBytes of memory)
 Factor Ops : 5.673e+09 (less than 1 second per iteration)
 Threads    : 1

                  Objective                Residual
Iter       Primal          Dual         Primal    Dual     Compl     Time
   0   5.03793136e+20 -3.78312836e+17  9.31e+08 2.08e+12  3.51e+16     2s
   1   2.71152977e+20 -5.07232302e+17  9.15e+08 1.98e+12  3.42e+16     2s
   2   2.65506772e+20 -8.72992602e+17  6.86e+08 1.77e+12  2.80e+16     3s
   3   1.25863336e+20 -3.20873834e+18  2.84e+08 5.99e+11  1.41e+16     3s
   4   3.65699125e+19 -3.78919338e+18  8.19e+07 6.61e+10  4.49e+15     4s
   5   2.42343962e+18 -3.04770659e+18  5.32e+06 3.25e+07  3.47e+14     5s
   6   9.32809224e+17 -1.83655499e+18  2.07e+06 1.05e+07  1.42e+14     5s
   7   5.19422039e+17 -1.14983400e+18  1.12e+06 4.01e+06  7.72e+13     6s
   8   7.54189139e+16 -4.04577727e+17  1.60e+05 7.03e+05  1.54e+13     7s
   9   1.92577491e+16 -1.14940103e+17  4.06e+04 1.46e+05  4.09e+12     7s
  10   6.06180711e+15 -3.66187864e+16  1.23e+04 3.85e+04  1.32e+12     8s
  11   3.05868053e+15 -9.57949730e+15  6.18e+03 7.30e+03  4.80e+11     9s
  12   7.03435274e+14 -4.47613616e+15  1.38e+03 2.82e+03  1.53e+11     9s
  13   3.47991793e+14 -1.91184761e+15  6.72e+02 3.38e+02  6.61e+10    10s
  14   5.24125673e+13 -4.69859970e+14  7.26e+01 5.48e+01  1.25e+10    10s
  15   1.18094902e+13 -1.91677891e+14  6.73e+00 1.84e+01  4.40e+09    11s
  16   1.88273351e+12 -3.59906888e+13  2.03e-01 2.58e+00  7.81e+08    12s
  17   1.01749725e+12 -9.69343414e+12  2.32e-03 4.33e-01  2.19e+08    13s
  18   3.51806439e+10 -3.96953017e+11  8.10e-06 4.15e-03  8.84e+06    14s
  19   2.60975423e+09 -2.65666593e+10  4.26e-08 7.32e-04  5.97e+05    14s
  20   3.82847438e+08 -1.80148912e+09  5.42e-09 4.88e-04  4.47e+04    15s
  21   4.06666495e+07 -1.36333482e+08  4.08e-09 2.44e-04  3.62e+03    16s
  22   3.35688650e+06 -5.60744044e+06  1.64e-09 4.88e-04  1.83e+02    16s
  23   4.98832146e+05 -3.29858323e+05  2.20e-09 7.32e-04  1.70e+01    17s
  24   3.38901783e+05  1.87603333e+05  1.15e-09 2.44e-04  3.10e+00    18s
  25   3.01281125e+05  2.22237701e+05  1.92e-09 2.44e-04  1.62e+00    19s
  26   2.89124376e+05  2.45833932e+05  1.07e-09 2.44e-04  8.86e-01    19s
  27   2.80378873e+05  2.58171289e+05  1.60e-09 2.44e-04  4.54e-01    20s
  28   2.71512156e+05  2.64900967e+05  9.71e-10 2.44e-04  1.35e-01    21s
  29   2.68628481e+05  2.66301759e+05  1.94e-09 2.44e-04  4.76e-02    22s
  30   2.67999113e+05  2.66789090e+05  6.14e-09 1.22e-04  2.48e-02    22s
  31   2.67628330e+05  2.67064819e+05  4.79e-09 2.44e-04  1.16e-02    23s
  32   2.67338307e+05  2.67282035e+05  4.14e-09 2.44e-04  1.32e-03    24s
  33   2.67310470e+05  2.67308261e+05  1.45e-08 2.44e-04  1.43e-04    25s
  34   2.67307674e+05  2.67307361e+05  1.46e-08 2.44e-04  4.72e-05    26s
  35   2.67305994e+05  2.67306232e+05  8.00e-09 2.44e-04  5.82e-06    27s
  36   2.67305838e+05  2.67305939e+05  4.10e-09 1.22e-04  1.41e-06    28s
  37   2.67305810e+05  2.67305855e+05  1.71e-06 2.44e-04  5.05e-07    28s
  38   2.67305803e+05  2.67305824e+05  7.58e-07 2.44e-04  2.38e-07    29s
  39   2.67305799e+05  2.67305798e+05  5.38e-08 2.44e-04  2.60e-08    30s
  40   2.67305798e+05  2.67305798e+05  4.54e-08 2.44e-04  1.84e-08    30s

Barrier solved model in 40 iterations and 30.22 seconds
Optimal objective 2.67305798e+05

Crossover log...

    6550 DPushes remaining with DInf 0.0000000e+00                30s
       0 DPushes remaining with DInf 0.0000000e+00                31s

    5029 PPushes remaining with PInf 1.2073950e-03                31s

Solved with dual simplex
Solved in 57783 iterations and 30.76 seconds
Optimal objective  2.673057981e+05

Wrote result file 'Baseline_gurobi.sol'
Wrote result file 'Baseline_gurobi.json'

